tr-tsp/TRImbros_12.tsp
NAME: TRImbros_12 (12 Villages of Gokceada Island of Turkey) / Special small TSP instance for Turkey - Gokceada Island : http://www.gokceada.gov.tr/
COMMENT: Akbudak, I., Karagul, K., Gunduz, G., Tokat, S. (2016)
TYPE : TSP
DIMENSION: 12
EDGE_WEIGHT_TYPE: GEO
NODE_COORD_SECTION
1 25.9039948000000  40.1929461000000
2 25.9064670000000  40.2217390000000
3 25.8934760000000  40.2300931000000
4 25.8710390000000  40.1898720000000
5 25.8318500000000  40.1911600000000
6 25.7852120000000  40.1505283000000
7 25.9018671000000  40.2283840000000
8 25.9437673000000  40.1475148000000
9 25.7739440000000  40.1506920000000
10  25.7421800000000  40.1287970000000
11  25.7060430000000  40.1239620000000
12  25.9449663000000  40.2269484000000
EOF



